p tw 552 8741 8 
1 9 
1 11 
1 461 
1 463 
2 7 
2 10 
2 12 
2 462 
2 464 
3 8 
3 10 
3 453 
4 7 
4 9 
4 454 
5 9 
5 10 
5 455 
6 7 
6 8 
6 456 
11 18 
11 19 
11 463 
12 17 
12 20 
12 464 
13 18 
13 20 
13 23 
14 17 
14 19 
14 24 
15 19 
15 20 
15 25 
16 17 
16 18 
16 26 
21 28 
21 29 
21 31 
21 465 
21 467 
22 27 
22 30 
22 32 
22 466 
22 468 
23 28 
23 30 
24 27 
24 29 
25 29 
25 30 
26 27 
26 28 
31 38 
31 39 
31 467 
32 37 
32 40 
32 468 
33 38 
33 40 
33 43 
34 37 
34 39 
34 44 
35 39 
35 40 
35 45 
36 37 
36 38 
36 46 
41 48 
41 49 
41 51 
41 469 
41 471 
42 47 
42 50 
42 52 
42 470 
42 472 
43 48 
43 50 
44 47 
44 49 
45 49 
45 50 
46 47 
46 48 
51 58 
51 59 
51 471 
52 57 
52 60 
52 472 
53 58 
53 60 
53 63 
54 57 
54 59 
54 64 
55 59 
55 60 
55 65 
56 57 
56 58 
56 66 
61 68 
61 69 
61 71 
61 473 
61 475 
62 67 
62 70 
62 72 
62 474 
62 476 
63 68 
63 70 
64 67 
64 69 
65 69 
65 70 
66 67 
66 68 
71 78 
71 79 
71 475 
72 77 
72 80 
72 476 
73 78 
73 80 
73 83 
74 77 
74 79 
74 84 
75 79 
75 80 
75 85 
76 77 
76 78 
76 86 
81 88 
81 89 
81 91 
81 477 
81 479 
82 87 
82 90 
82 92 
82 478 
82 480 
83 88 
83 90 
84 87 
84 89 
85 89 
85 90 
86 87 
86 88 
91 98 
91 99 
91 479 
92 97 
92 100 
92 480 
93 98 
93 100 
93 103 
94 97 
94 99 
94 104 
95 99 
95 100 
95 105 
96 97 
96 98 
96 106 
101 108 
101 109 
101 111 
101 481 
101 483 
102 107 
102 110 
102 112 
102 482 
102 484 
103 108 
103 110 
104 107 
104 109 
105 109 
105 110 
106 107 
106 108 
111 118 
111 119 
111 483 
112 117 
112 120 
112 484 
113 118 
113 120 
113 123 
114 117 
114 119 
114 124 
115 119 
115 120 
115 125 
116 117 
116 118 
116 126 
121 128 
121 129 
121 131 
121 485 
121 487 
122 127 
122 130 
122 132 
122 486 
122 488 
123 128 
123 130 
124 127 
124 129 
125 129 
125 130 
126 127 
126 128 
131 138 
131 139 
131 487 
132 137 
132 140 
132 488 
133 138 
133 140 
133 143 
134 137 
134 139 
134 144 
135 139 
135 140 
135 145 
136 137 
136 138 
136 146 
141 148 
141 149 
141 151 
141 489 
141 491 
142 147 
142 150 
142 152 
142 490 
142 492 
143 148 
143 150 
144 147 
144 149 
145 149 
145 150 
146 147 
146 148 
151 158 
151 159 
151 491 
152 157 
152 160 
152 492 
153 158 
153 160 
153 163 
154 157 
154 159 
154 164 
155 159 
155 160 
155 165 
156 157 
156 158 
156 166 
161 168 
161 169 
161 171 
161 493 
161 495 
162 167 
162 170 
162 172 
162 494 
162 496 
163 168 
163 170 
164 167 
164 169 
165 169 
165 170 
166 167 
166 168 
171 178 
171 179 
171 495 
172 177 
172 180 
172 496 
173 178 
173 180 
173 183 
174 177 
174 179 
174 184 
175 179 
175 180 
175 185 
176 177 
176 178 
176 186 
181 188 
181 189 
181 191 
181 497 
181 499 
182 187 
182 190 
182 192 
182 498 
182 500 
183 188 
183 190 
184 187 
184 189 
185 189 
185 190 
186 187 
186 188 
191 198 
191 199 
191 499 
192 197 
192 200 
192 500 
193 198 
193 200 
193 203 
194 197 
194 199 
194 204 
195 199 
195 200 
195 205 
196 197 
196 198 
196 206 
201 208 
201 209 
201 211 
201 501 
201 503 
202 207 
202 210 
202 212 
202 502 
202 504 
203 208 
203 210 
204 207 
204 209 
205 209 
205 210 
206 207 
206 208 
211 218 
211 219 
211 503 
212 217 
212 220 
212 504 
213 218 
213 220 
213 223 
214 217 
214 219 
214 224 
215 219 
215 220 
215 225 
216 217 
216 218 
216 226 
221 228 
221 229 
221 231 
221 505 
221 507 
222 227 
222 230 
222 232 
222 506 
222 508 
223 228 
223 230 
224 227 
224 229 
225 229 
225 230 
226 227 
226 228 
231 238 
231 239 
231 507 
232 237 
232 240 
232 508 
233 238 
233 240 
233 243 
234 237 
234 239 
234 244 
235 239 
235 240 
235 245 
236 237 
236 238 
236 246 
241 248 
241 249 
241 251 
241 509 
241 511 
242 247 
242 250 
242 252 
242 510 
242 512 
243 248 
243 250 
244 247 
244 249 
245 249 
245 250 
246 247 
246 248 
251 258 
251 259 
251 511 
252 257 
252 260 
252 512 
253 258 
253 260 
253 263 
254 257 
254 259 
254 264 
255 259 
255 260 
255 265 
256 257 
256 258 
256 266 
261 268 
261 269 
261 271 
261 513 
261 515 
262 267 
262 270 
262 272 
262 514 
262 516 
263 268 
263 270 
264 267 
264 269 
265 269 
265 270 
266 267 
266 268 
271 278 
271 279 
271 515 
272 277 
272 280 
272 516 
273 278 
273 280 
273 283 
274 277 
274 279 
274 284 
275 279 
275 280 
275 285 
276 277 
276 278 
276 286 
281 288 
281 289 
281 291 
281 517 
281 519 
282 287 
282 290 
282 292 
282 518 
282 520 
283 288 
283 290 
284 287 
284 289 
285 289 
285 290 
286 287 
286 288 
291 298 
291 299 
291 519 
292 297 
292 300 
292 520 
293 298 
293 300 
293 303 
294 297 
294 299 
294 304 
295 299 
295 300 
295 305 
296 297 
296 298 
296 306 
301 308 
301 309 
301 311 
301 521 
301 523 
302 307 
302 310 
302 312 
302 522 
302 524 
303 308 
303 310 
304 307 
304 309 
305 309 
305 310 
306 307 
306 308 
311 318 
311 319 
311 523 
312 317 
312 320 
312 524 
313 318 
313 320 
313 323 
314 317 
314 319 
314 324 
315 319 
315 320 
315 325 
316 317 
316 318 
316 326 
321 328 
321 329 
321 331 
321 525 
321 527 
322 327 
322 330 
322 332 
322 526 
322 528 
323 328 
323 330 
324 327 
324 329 
325 329 
325 330 
326 327 
326 328 
331 338 
331 339 
331 527 
332 337 
332 340 
332 528 
333 338 
333 340 
333 343 
334 337 
334 339 
334 344 
335 339 
335 340 
335 345 
336 337 
336 338 
336 346 
341 348 
341 349 
341 351 
341 529 
341 531 
342 347 
342 350 
342 352 
342 530 
342 532 
343 348 
343 350 
344 347 
344 349 
345 349 
345 350 
346 347 
346 348 
351 358 
351 359 
351 531 
352 357 
352 360 
352 532 
353 358 
353 360 
353 363 
354 357 
354 359 
354 364 
355 359 
355 360 
355 365 
356 357 
356 358 
356 366 
361 368 
361 369 
361 371 
361 533 
361 535 
362 367 
362 370 
362 372 
362 534 
362 536 
363 368 
363 370 
364 367 
364 369 
365 369 
365 370 
366 367 
366 368 
371 378 
371 379 
371 535 
372 377 
372 380 
372 536 
373 378 
373 380 
373 383 
374 377 
374 379 
374 384 
375 379 
375 380 
375 385 
376 377 
376 378 
376 386 
381 388 
381 389 
381 391 
381 537 
381 539 
382 387 
382 390 
382 392 
382 538 
382 540 
383 388 
383 390 
384 387 
384 389 
385 389 
385 390 
386 387 
386 388 
391 398 
391 399 
391 539 
392 397 
392 400 
392 540 
393 398 
393 400 
393 403 
394 397 
394 399 
394 404 
395 399 
395 400 
395 405 
396 397 
396 398 
396 406 
401 408 
401 409 
401 411 
401 541 
401 543 
402 407 
402 410 
402 412 
402 542 
402 544 
403 408 
403 410 
404 407 
404 409 
405 409 
405 410 
406 407 
406 408 
411 418 
411 419 
411 543 
412 417 
412 420 
412 544 
413 418 
413 420 
413 423 
414 417 
414 419 
414 424 
415 419 
415 420 
415 425 
416 417 
416 418 
416 426 
421 428 
421 429 
421 431 
421 545 
421 547 
422 427 
422 430 
422 432 
422 546 
422 548 
423 428 
423 430 
424 427 
424 429 
425 429 
425 430 
426 427 
426 428 
431 438 
431 439 
431 547 
432 437 
432 440 
432 548 
433 438 
433 440 
433 443 
434 437 
434 439 
434 444 
435 439 
435 440 
435 445 
436 437 
436 438 
436 446 
441 448 
441 449 
441 451 
441 549 
441 551 
442 447 
442 450 
442 452 
442 550 
442 552 
443 448 
443 450 
444 447 
444 449 
445 449 
445 450 
446 447 
446 448 
451 458 
451 459 
451 551 
452 457 
452 460 
452 552 
453 458 
453 460 
454 457 
454 459 
455 459 
455 460 
456 457 
456 458 
461 462 
463 464 
465 466 
467 468 
469 470 
471 472 
473 474 
475 476 
477 478 
479 480 
481 482 
483 484 
485 486 
487 488 
489 490 
491 492 
493 494 
495 496 
497 498 
499 500 
501 502 
503 504 
505 506 
507 508 
509 510 
511 512 
513 514 
515 516 
517 518 
519 520 
521 522 
523 524 
525 526 
527 528 
529 530 
531 532 
533 534 
535 536 
537 538 
539 540 
541 542 
543 544 
545 546 
547 548 
549 550 
551 552 
